50
16740

35 905
596 962
370 379
767 535
462 788
178 225
7 276
100 925
477 969
310 731
951 281
879 908
656 365
325 9
681 175
500 847
746 849
270 502
584 287
937 7
89 786
117 900
106 621
451 148
948 899
590 37
558 717
188 559
851 553
965 877
183 187
882 712
90 206
491 377
995 25
27 777
595 833
361 666
322 191
468 806
208 896
716 195
317 660
35 499
812 612
208 374
22 841
695 192
285 539
612 145
